p cnf 152 371
a 2 15 13 11 9 84 31 29 48 46 44 42 40 61 59 135 140 1 8 24 28 39 58 0
d 70 15 1 0
d 33 84 24 0
d 83 84 8 0
d 124 61 39 0
d 99 48 28 0
d 134 135 58 0
d 3 2 0
d 4 2 0
d 5 2 0
d 6 1 2 0
d 7 1 2 0
d 10 9 0
d 12 11 0
d 14 13 0
d 16 15 0
d 17 15 2 0
d 18 13 15 2 0
d 19 11 13 15 2 0
d 20 9 11 13 15 2 0
d 21 8 9 11 13 15 2 0
d 22 8 9 11 13 15 2 0
d 23 1 2 8 9 11 13 15 0
d 25 24 9 11 13 15 2 0
d 26 24 9 11 13 15 2 0
d 27 1 2 8 9 11 13 15 24 0
d 30 29 0
d 32 31 0
d 34 31 84 24 0
d 35 29 31 84 24 0
d 36 28 29 31 84 24 0
d 37 28 29 31 84 24 0
d 38 1 2 8 9 11 13 15 24 28 29 31 84 0
d 41 40 0
d 43 42 0
d 45 44 0
d 47 46 0
d 49 48 0
d 50 48 29 31 84 24 0
d 51 46 48 29 31 84 24 0
d 52 44 46 48 29 31 84 24 0
d 53 42 44 46 48 29 31 84 24 0
d 54 40 42 44 46 48 29 31 84 24 0
d 55 39 40 42 44 46 48 29 31 84 24 0
d 56 39 40 42 44 46 48 29 31 84 24 0
d 57 1 2 8 9 11 13 15 24 28 29 31 84 39 40 42 44 46 48 0
d 60 59 0
d 62 61 0
d 63 61 40 42 44 46 48 29 31 84 24 0
d 64 59 61 40 42 44 46 48 29 31 84 24 0
d 65 58 59 61 40 42 44 46 48 29 31 84 24 0
d 66 58 59 61 40 42 44 46 48 29 31 84 24 0
d 67 1 2 8 9 11 13 15 24 28 29 31 84 39 40 42 44 46 48 58 59 61 0
d 68 2 0
d 69 2 0
d 71 15 2 0
d 72 15 1 2 0
d 73 2 15 1 0
d 74 13 15 2 0
d 75 13 15 2 0
d 76 2 15 1 13 0
d 77 11 13 15 2 0
d 78 11 13 15 2 0
d 79 2 15 1 13 11 0
d 80 9 11 13 15 2 0
d 81 9 11 13 15 2 0
d 82 2 15 1 13 11 9 0
d 85 84 9 11 13 15 2 0
d 86 84 8 9 11 13 15 2 0
d 87 2 15 1 13 11 9 84 8 0
d 88 31 84 24 0
d 89 84 0
d 90 84 9 11 13 15 2 0
d 91 31 84 9 11 13 15 2 0
d 92 31 84 24 9 11 13 15 2 0
d 93 2 15 1 13 11 9 84 8 31 24 0
d 94 29 31 84 24 0
d 95 31 84 9 11 13 15 2 0
d 96 29 31 84 9 11 13 15 2 0
d 97 29 31 84 24 9 11 13 15 2 0
d 98 2 15 1 13 11 9 84 8 31 24 29 0
d 100 29 31 84 9 11 13 15 2 0
d 101 48 29 31 84 9 11 13 15 2 0
d 102 48 28 29 31 84 9 11 13 15 2 0
d 103 2 15 1 13 11 9 84 8 31 24 29 48 28 0
d 104 46 48 29 31 84 24 0
d 105 48 29 31 84 9 11 13 15 2 0
d 106 46 48 29 31 84 9 11 13 15 2 0
d 107 46 48 29 31 84 24 9 11 13 15 2 0
d 108 2 15 1 13 11 9 84 8 31 24 29 48 28 46 0
d 109 44 46 48 29 31 84 24 0
d 110 46 48 29 31 84 9 11 13 15 2 0
d 111 44 46 48 29 31 84 9 11 13 15 2 0
d 112 44 46 48 29 31 84 24 9 11 13 15 2 0
d 113 2 15 1 13 11 9 84 8 31 24 29 48 28 46 44 0
d 114 42 44 46 48 29 31 84 24 0
d 115 44 46 48 29 31 84 9 11 13 15 2 0
d 116 42 44 46 48 29 31 84 9 11 13 15 2 0
d 117 42 44 46 48 29 31 84 24 9 11 13 15 2 0
d 118 2 15 1 13 11 9 84 8 31 24 29 48 28 46 44 42 0
d 119 40 42 44 46 48 29 31 84 24 0
d 120 42 44 46 48 29 31 84 9 11 13 15 2 0
d 121 40 42 44 46 48 29 31 84 9 11 13 15 2 0
d 122 40 42 44 46 48 29 31 84 24 9 11 13 15 2 0
d 123 2 15 1 13 11 9 84 8 31 24 29 48 28 46 44 42 40 0
d 125 40 42 44 46 48 29 31 84 9 11 13 15 2 0
d 126 61 40 42 44 46 48 29 31 84 9 11 13 15 2 0
d 127 61 39 40 42 44 46 48 29 31 84 9 11 13 15 2 0
d 128 2 15 1 13 11 9 84 8 31 24 29 48 28 46 44 42 40 61 39 0
d 129 59 61 40 42 44 46 48 29 31 84 24 0
d 130 61 40 42 44 46 48 29 31 84 9 11 13 15 2 0
d 131 59 61 40 42 44 46 48 29 31 84 9 11 13 15 2 0
d 132 59 61 40 42 44 46 48 29 31 84 24 9 11 13 15 2 0
d 133 2 15 1 13 11 9 84 8 31 24 29 48 28 46 44 42 40 61 39 59 0
d 136 59 61 40 42 44 46 48 29 31 84 9 11 13 15 2 0
d 137 135 59 61 40 42 44 46 48 29 31 84 9 11 13 15 2 0
d 138 135 58 59 61 40 42 44 46 48 29 31 84 9 11 13 15 2 0
d 139 2 15 1 13 11 9 84 8 31 24 29 48 28 46 44 42 40 61 39 59 135 58 0
d 141 135 0
d 142 135 59 61 40 42 44 46 48 29 31 84 24 0
d 143 140 135 59 61 40 42 44 46 48 29 31 84 24 0
d 144 135 59 61 40 42 44 46 48 29 31 84 9 11 13 15 2 0
d 145 140 135 59 61 40 42 44 46 48 29 31 84 9 11 13 15 2 0
d 146 140 135 59 61 40 42 44 46 48 29 31 84 24 9 11 13 15 2 0
d 147 2 15 1 13 11 9 84 8 31 24 29 48 28 46 44 42 40 61 39 59 135 58 140 0
d 148 140 0
d 149 140 135 59 61 40 42 44 46 48 29 31 84 9 11 13 15 2 0
d 150 140 135 59 61 40 42 44 46 48 29 31 84 24 9 11 13 15 2 0
d 151 2 15 1 13 11 9 84 8 31 24 29 48 28 46 44 42 40 61 39 59 135 58 140 0
d 152 1 2 8 9 11 13 15 24 28 29 31 84 39 40 42 44 46 48 58 59 61 135 140 0
3 2 0
-3 -2 0
4 -2 0
4 -3 0
-4 2 3 0
-5 3 0
-5 4 0
5 -3 -4 0
6 -1 -5 0
6 1 5 0
-6 -1 5 0
-6 1 -5 0
7 6 0
-7 -6 0
10 9 0
-10 -9 0
12 11 0
-12 -11 0
14 13 0
-14 -13 0
16 15 0
-16 -15 0
-17 16 0
-17 5 0
17 -16 -5 0
-18 14 0
-18 17 0
18 -14 -17 0
-19 12 0
-19 18 0
19 -12 -18 0
-20 10 0
-20 19 0
20 -10 -19 0
21 -8 -20 0
21 8 20 0
-21 -8 20 0
-21 8 -20 0
22 21 0
-22 -21 0
23 -7 0
23 -22 0
-23 7 22 0
25 -24 -20 0
25 24 20 0
-25 -24 20 0
-25 24 -20 0
26 25 0
-26 -25 0
27 -23 0
27 -26 0
-27 23 26 0
30 29 0
-30 -29 0
32 31 0
-32 -31 0
-34 32 0
-34 33 0
34 -32 -33 0
-35 30 0
-35 34 0
35 -30 -34 0
36 -28 -35 0
36 28 35 0
-36 -28 35 0
-36 28 -35 0
37 36 0
-37 -36 0
38 -27 0
38 -37 0
-38 27 37 0
41 40 0
-41 -40 0
43 42 0
-43 -42 0
45 44 0
-45 -44 0
47 46 0
-47 -46 0
49 48 0
-49 -48 0
-50 49 0
-50 35 0
50 -49 -35 0
-51 47 0
-51 50 0
51 -47 -50 0
-52 45 0
-52 51 0
52 -45 -51 0
-53 43 0
-53 52 0
53 -43 -52 0
-54 41 0
-54 53 0
54 -41 -53 0
55 -39 -54 0
55 39 54 0
-55 -39 54 0
-55 39 -54 0
56 55 0
-56 -55 0
57 -38 0
57 -56 0
-57 38 56 0
60 59 0
-60 -59 0
62 61 0
-62 -61 0
-63 62 0
-63 54 0
63 -62 -54 0
-64 60 0
-64 63 0
64 -60 -63 0
65 -58 -64 0
65 58 64 0
-65 -58 64 0
-65 58 -64 0
66 65 0
-66 -65 0
67 -57 0
67 -66 0
-67 57 66 0
-68 2 0
-68 4 0
68 -2 -4 0
69 -68 -68 0
69 68 68 0
-69 -68 68 0
-69 68 -68 0
-71 15 0
-71 5 0
71 -15 -5 0
72 -70 -71 0
72 70 71 0
-72 -70 71 0
-72 70 -71 0
-73 69 0
-73 72 0
73 -69 -72 0
-74 13 0
-74 17 0
74 -13 -17 0
75 -74 -74 0
75 74 74 0
-75 -74 74 0
-75 74 -74 0
-76 73 0
-76 75 0
76 -73 -75 0
-77 11 0
-77 18 0
77 -11 -18 0
78 -77 -77 0
78 77 77 0
-78 -77 77 0
-78 77 -77 0
-79 76 0
-79 78 0
79 -76 -78 0
-80 9 0
-80 19 0
80 -9 -19 0
81 -80 -80 0
81 80 80 0
-81 -80 80 0
-81 80 -80 0
-82 79 0
-82 81 0
82 -79 -81 0
-85 84 0
-85 20 0
85 -84 -20 0
86 -83 -85 0
86 83 85 0
-86 -83 85 0
-86 83 -85 0
-87 82 0
-87 86 0
87 -82 -86 0
-88 31 0
-88 33 0
88 -31 -33 0
89 84 0
-89 -84 0
-90 89 0
-90 20 0
90 -89 -20 0
-91 31 0
-91 90 0
91 -31 -90 0
92 -88 -91 0
92 88 91 0
-92 -88 91 0
-92 88 -91 0
-93 87 0
-93 92 0
93 -87 -92 0
-94 29 0
-94 34 0
94 -29 -34 0
-95 32 0
-95 90 0
95 -32 -90 0
-96 29 0
-96 95 0
96 -29 -95 0
97 -94 -96 0
97 94 96 0
-97 -94 96 0
-97 94 -96 0
-98 93 0
-98 97 0
98 -93 -97 0
-100 30 0
-100 95 0
100 -30 -95 0
-101 48 0
-101 100 0
101 -48 -100 0
102 -99 -101 0
102 99 101 0
-102 -99 101 0
-102 99 -101 0
-103 98 0
-103 102 0
103 -98 -102 0
-104 46 0
-104 50 0
104 -46 -50 0
-105 49 0
-105 100 0
105 -49 -100 0
-106 46 0
-106 105 0
106 -46 -105 0
107 -104 -106 0
107 104 106 0
-107 -104 106 0
-107 104 -106 0
-108 103 0
-108 107 0
108 -103 -107 0
-109 44 0
-109 51 0
109 -44 -51 0
-110 47 0
-110 105 0
110 -47 -105 0
-111 44 0
-111 110 0
111 -44 -110 0
112 -109 -111 0
112 109 111 0
-112 -109 111 0
-112 109 -111 0
-113 108 0
-113 112 0
113 -108 -112 0
-114 42 0
-114 52 0
114 -42 -52 0
-115 45 0
-115 110 0
115 -45 -110 0
-116 42 0
-116 115 0
116 -42 -115 0
117 -114 -116 0
117 114 116 0
-117 -114 116 0
-117 114 -116 0
-118 113 0
-118 117 0
118 -113 -117 0
-119 40 0
-119 53 0
119 -40 -53 0
-120 43 0
-120 115 0
120 -43 -115 0
-121 40 0
-121 120 0
121 -40 -120 0
122 -119 -121 0
122 119 121 0
-122 -119 121 0
-122 119 -121 0
-123 118 0
-123 122 0
123 -118 -122 0
-125 41 0
-125 120 0
125 -41 -120 0
-126 61 0
-126 125 0
126 -61 -125 0
127 -124 -126 0
127 124 126 0
-127 -124 126 0
-127 124 -126 0
-128 123 0
-128 127 0
128 -123 -127 0
-129 59 0
-129 63 0
129 -59 -63 0
-130 62 0
-130 125 0
130 -62 -125 0
-131 59 0
-131 130 0
131 -59 -130 0
132 -129 -131 0
132 129 131 0
-132 -129 131 0
-132 129 -131 0
-133 128 0
-133 132 0
133 -128 -132 0
-136 60 0
-136 130 0
136 -60 -130 0
-137 135 0
-137 136 0
137 -135 -136 0
138 -134 -137 0
138 134 137 0
-138 -134 137 0
-138 134 -137 0
-139 133 0
-139 138 0
139 -133 -138 0
141 135 0
-141 -135 0
-142 141 0
-142 64 0
142 -141 -64 0
-143 140 0
-143 142 0
143 -140 -142 0
-144 141 0
-144 136 0
144 -141 -136 0
-145 140 0
-145 144 0
145 -140 -144 0
146 -143 -145 0
146 143 145 0
-146 -143 145 0
-146 143 -145 0
-147 139 0
-147 146 0
147 -139 -146 0
148 140 0
-148 -140 0
-149 148 0
-149 144 0
149 -148 -144 0
150 -143 -149 0
150 143 149 0
-150 -143 149 0
-150 143 -149 0
-151 147 0
-151 150 0
151 -147 -150 0
152 -67 0
152 -151 0
-152 67 151 0
152 0
